100
128
56
23
51
59
47
30
49
34
50
38
51
7
11
52
52
17
31
46
35
50
15
34
35
45
53
20
30
55
42
56
20
32
41
19
43
10
44
14
29
50
13
18
19
53
11
44
11
55
3
22
4
11
53
16
18
4
28
17
45
11
42
21
38
24
2
19
17
3
2
26
25
36
1
14
14
47
31
1
25
2
35
3
12
19
52
14
20
34
62
47
18
51
39
16
45
36
35
1
18
48